(set-info :status sat)
(declare-const symbol_17 (_ BitVec 32))
(declare-const symbol_4 (_ BitVec 32))
(declare-const symbol_15 (_ BitVec 32))
(declare-const symbol_0 (_ BitVec 32))
(declare-const symbol_9 (_ BitVec 32))
(declare-const symbol_11 (_ BitVec 32))
(declare-const symbol_2 (_ BitVec 32))
(declare-const symbol_13 (_ BitVec 32))
(declare-const symbol_7 (_ BitVec 32))
(declare-const symbol_5 (_ BitVec 32))
(assert (not (not (= symbol_17 (_ bv15 32)))))
(assert (not (not (= symbol_15 (_ bv15 32)))))
(assert (not (not (= symbol_13 (_ bv15 32)))))
(assert (not (not (= symbol_11 (_ bv15 32)))))
(assert (not (not (= symbol_9 (_ bv15 32)))))
(assert (not (not (= symbol_7 (_ bv15 32)))))
(assert (not (not (= symbol_5 (_ bv15 32)))))
(assert (not (not (= symbol_4 (_ bv15 32)))))
(assert (not (not (= symbol_2 (_ bv15 32)))))
(assert (not (not (= symbol_0 (_ bv10 32)))))
(assert (not (= symbol_0 (_ bv15 32))))
(check-sat)